benchmarks_vrp/CMT3/fixed_c/CMT3_5.vrp
NAME: CMT3_5
TYPE: CVRP
COMMENT: 826.14 - Cluster Nr.5
DIMENSION: 11
CAPACITY: 200
EDGE_WEIGHT_TYPE: EUC_2D
NODE_COORD_TYPE: TWOD_COORDS
NODE_COORD_SECTION: 
11 15 47
8 8 56
6 2 60
1 6 38
9 20 40
10 13 52
2 14 37
4 10 43
7 2 48
3 20 50
5 35 35
DEPOT_SECTION: 
5
-1
DEMAND_SECTION: 
4 9
3 5
7 1
10 36
6 5
9 12
11 16
8 27
5 0
2 11
1 16
EOF
