benchmarks_vrp/CMT3/fixed_c/CMT3_5.tour
NAME: CMT3_5 solution
TYPE: TOUR
TOUR_SECTION:
5 3 11 10 8 6 7 4 1 2 9 -1
-1
EOF